\* planning_problem_of_kits *\
Minimize
Costo_Total: 110.3 y_Candelaria + 190.7 y_El_Cerrito + 173.1 y_Florida
 + 113.1 y_Palmira + 128.1 y_Pradera
Subject To
_C1: y_Candelaria + y_El_Cerrito + y_Florida + y_Palmira + y_Pradera = 1
Binaries
y_Candelaria
y_El_Cerrito
y_Florida
y_Palmira
y_Pradera
End
